!!! Generated by ASE !!!
&FORCE_EVAL
   METHOD Quickstep
   STRESS_TENSOR ANALYTICAL
   &DFT
      BASIS_SET_FILE_NAME BASIS_MOLOPT
      POTENTIAL_FILE_NAME POTENTIAL
      &SCF
         SCF_GUESS RESTART
         IGNORE_CONVERGENCE_FAILURE
         MAX_SCF 50
      &END SCF
      &MGRID
         CUTOFF [eV] 2.500000000000000000e+02
      &END MGRID
      &LS_SCF
         MAX_SCF 50
      &END LS_SCF
      &XC
         &XC_FUNCTIONAL
            &BEEF
            &END BEEF
         &END XC_FUNCTIONAL
      &END XC
   &END DFT
   &PRINT
      &STRESS_TENSOR ON
      &END STRESS_TENSOR
   &END PRINT
   &SUBSYS
      &COORD
         Ar 8.476410865783691406e+00 9.861777305603027344e+00 9.353368759155273438e+00
         Ar 1.387432479858398438e+01 7.029573440551757812e+00 2.275299131870269775e-01
         Ar 2.768295049667358398e+00 8.214106559753417969e+00 1.302088499069213867e+00
         Ar 1.106209659576416016e+01 1.161152720451354980e+00 1.082140827178955078e+01
         Ar 1.221181011199951172e+01 4.123690605163574219e+00 1.246911430358886719e+01
         Ar 1.677431583404541016e+00 1.085240554809570312e+01 8.376901626586914062e+00
         Ar 9.532681465148925781e+00 5.683466911315917969e+00 2.290067728608846664e-03
         Ar 1.379168891906738281e+01 3.503072261810302734e+00 8.799330711364746094e+00
         Ar 9.746376991271972656e+00 8.139490127563476562e+00 5.861498832702636719e+00
         Ar 5.587983608245849609e+00 5.531340122222900391e+00 2.825715541839599609e-01
         Ar 2.693259716033935547e+00 1.385635662078857422e+01 3.280815601348876953e+00
         Ar 3.973872363567352295e-01 1.527262449264526367e+00 7.475231289863586426e-01
         Ar 1.969918608665466309e+00 1.435503363609313965e+00 1.105098438262939453e+01
         Ar 1.217753028869628906e+01 3.765209913253784180e+00 2.202731609344482422e+00
         Ar 9.623313903808593750e+00 9.210726022720336914e-01 4.048694133758544922e+00
         Ar 9.057487487792968750e+00 3.101528406143188477e+00 7.934357643127441406e+00
         Ar 5.211401462554931641e+00 1.079836940765380859e+01 2.192658185958862305e+00
         Ar 3.559600591659545898e+00 4.455274105072021484e+00 6.935702800750732422e+00
         Ar 4.722922146320343018e-01 5.709410667419433594e+00 3.811186313629150391e+00
         Ar 7.753822326660156250e+00 2.706073522567749023e+00 1.438064694404602051e+00
         Ar 8.411452293395996094e+00 5.702115535736083984e+00 3.555477619171142578e+00
         Ar 1.117229938507080078e+01 8.065903663635253906e+00 1.249303817749023438e+01
         Ar 1.415908718109130859e+01 9.492211341857910156e+00 3.588639020919799805e+00
         Ar 1.106651782989501953e+01 1.211927413940429688e+00 1.088638603687286377e-01
         Ar 1.341132259368896484e+01 1.352379703521728516e+01 2.843837976455688477e+00
         Ar 6.489095211029052734e+00 1.397900772094726562e+01 4.008685588836669922e+00
         Ar 8.580332756042480469e+00 1.310602664947509766e+01 7.157618522644042969e+00
         Ar 3.532400369644165039e+00 5.170121192932128906e+00 1.037255668640136719e+01
         Ar 1.442569541931152344e+01 7.294211864471435547e+00 6.712945461273193359e+00
         Ar 3.421614646911621094e+00 3.095835447311401367e+00 2.107390403747558594e+00
         Ar 1.014320755004882812e+01 1.157395076751708984e+01 4.371496677398681641e+00
         Ar 2.093667685985565186e-01 2.159460783004760742e+00 4.293524265289306641e+00
         Ar 6.884283065795898438e+00 1.094346332550048828e+01 1.234586906433105469e+01
         Ar 4.683818817138671875e+00 8.991870880126953125e+00 9.196371078491210938e+00
         Ar 1.148450756072998047e+01 7.402052879333496094e+00 2.741325378417968750e+00
         Ar 7.559405803680419922e+00 2.484788149595260620e-01 1.151543712615966797e+01
         Ar 6.464088916778564453e+00 3.052150964736938477e+00 5.438263893127441406e+00
         Ar 1.627007007598876953e+00 4.635751724243164062e+00 1.398748111724853516e+01
         Ar 6.888730525970458984e+00 9.717863082885742188e+00 5.554508686065673828e+00
         Ar 7.204010486602783203e+00 6.171103954315185547e+00 7.711760044097900391e+00
         Ar 7.236167907714843750e+00 7.326122760772705078e+00 1.189024353027343750e+01
         Ar 5.653346061706542969e+00 1.884457468986511230e+00 9.211991310119628906e+00
         Ar 1.644176125526428223e+00 1.195490837097167969e+01 1.893174946308135986e-01
         Ar 1.152003002166748047e+01 4.455011367797851562e+00 5.521020412445068359e+00
         Ar 1.330872821807861328e+01 1.227019309997558594e+01 6.274954795837402344e+00
         Ar 1.074054145812988281e+01 5.958464145660400391e+00 9.336084365844726562e+00
         Ar 4.541001796722412109e+00 6.185431480407714844e+00 3.854142665863037109e+00
         Ar 1.921991705894470215e+00 1.050577402114868164e+00 7.478245258331298828e+00
         Ar 1.199523162841796875e+01 9.266017675399780273e-01 7.009228229522705078e+00
         Ar 1.410034275054931641e+01 1.060374450683593750e+01 1.168548583984375000e+01
         Ar 8.807076454162597656e+00 1.288951206207275391e+01 1.213838219642639160e+00
         Ar 5.250099182128906250e+00 1.390054893493652344e+01 2.186905890703201294e-01
         Ar 2.937546014785766602e+00 9.405314445495605469e+00 1.227213191986083984e+01
         Ar 3.128551244735717773e-01 7.050258159637451172e+00 1.038190460205078125e+01
         Ar 3.372850179672241211e+00 1.030417823791503906e+01 5.082834720611572266e+00
         Ar 3.708902359008789062e+00 1.261194896697998047e+01 1.118313312530517578e+01
         Ar 4.774214744567871094e+00 1.257871150970458984e+01 7.563049793243408203e+00
         Ar 1.180655860900878906e+01 9.796371459960937500e+00 8.555127143859863281e+00
         Ar 8.500493049621582031e+00 3.678767442703247070e+00 1.186049270629882812e+01
         Ar 1.185890388488769531e+01 1.056522178649902344e+01 7.759906649589538574e-01
         Ar 4.868737697601318359e+00 2.169745683670043945e+00 1.296569824218750000e+01
         Ar 8.316828727722167969e+00 8.871801376342773438e+00 1.042743682861328125e+00
         Ar 1.369175720214843750e+01 1.366290760040283203e+01 9.843017578125000000e+00
         Ar 1.060237312316894531e+01 1.211503314971923828e+01 1.174592018127441406e+01
      &END COORD
      &CELL
         PERIODIC XYZ
         A 1.447469300000000025e+01 0.000000000000000000e+00 0.000000000000000000e+00
         B 0.000000000000000000e+00 1.447469300000000025e+01 0.000000000000000000e+00
         C 0.000000000000000000e+00 0.000000000000000000e+00 1.447469300000000025e+01
      &END CELL
      &KIND Ar
         BASIS_SET DZVP-MOLOPT-SR-GTH
         POTENTIAL GTH-PBE
      &END KIND
   &END SUBSYS
&END FORCE_EVAL
&GLOBAL
   PROJECT cp2k
   PRINT_LEVEL LOW
&END GLOBAL
